831.45 0
0 94 96 59 98 85 91 100 37 92 97 95 13 0
0 27 31 10 32 90 63 64 49 36 46 45 17 84 5 60 0
0 69 1 70 30 20 66 65 71 35 34 78 29 24 80 68 0
0 58 2 57 15 41 22 75 74 72 73 21 40 53 0
0 87 42 43 14 44 38 86 16 61 93 99 6 0
0 89 18 83 8 82 48 47 19 11 62 88 7 52 0
0 28 76 77 3 79 33 81 9 51 50 0
0 12 54 55 25 39 67 23 56 4 26 0
